c Output_time 26.03.2020 18:15:40_+0100 1585242940961815393
c ** Program information **
c program_name                          "QBRG_debug"
c version                               "0.3.20"
c date                                  "25.3.2020"
c gid_id                                "673970833836058123f633335630c185360d632e"
c author                                "Oliver Kullmann"
c url                                   "https://github.com/OKullmann/oklibrary/blob/master/Satisfiability/Transformers/Generators/Random/QBRG.cpp"
c ** Machine information **
c machine_name                          "chyna-Lenovo-G50-70"
c bogomips                              3791.08
c ** Compilation information **
c compiler_version                      "g++ 7.5.0"
c compilation_date                      "Mar_26_2020 11:16:30"
c compilation_options                   "--std=c++17 -pedantic -fmax-errors=5 -Wall -Wextra -g -D_GLIBCXX_DEBUG"
c NDEBUG                                0
c OPTIMIZE                              0
c ** Parameters **
c command-line                          "./QBRG_debug" "a40 e40 a40 40" "717*1,1|2-2,1|3-3,1|4-4,1" "" "1,t" ""
c output                                "QuBlRaGe_160_717_1585242940792763254.qdimacs"
c options                               "filtered,renamed"
c num_quantifier_blocks                 4
c  quantifier_blocks                    1:a1-40 2:e41-80 3:a81-120 4:e121-160
c num_clause-blocks                     1
c  clause-blocks                        717 * {1-40,1,1/2} | {41-80,1,1/2} | {81-120,1,1/2} | {121-160,1,1/2}
c num_e-seeds                           37+2=39
c  e-seeds                              1 0 1 0 5 160 2 40 0 40 1 40 0 40 1 717 4 1 1 1 1 2 2 2 1 1 2 3 3 1 1 2 4 4 1 1 2 1 1585242940792762165
p cnf 160 717
a 1 2 3 4 5 6 7 8 9 10 11 12 13 14 15 16 17 18 19 20 21 22 23 24 25 26 27 28 29 30 31 32 33 34 35 36 37 38 39 40 0
e 41 42 43 44 45 46 47 48 49 50 51 52 53 54 55 56 57 58 59 60 61 62 63 64 65 66 67 68 69 70 71 72 73 74 75 76 77 78 79 80 0
a 81 82 83 84 85 86 87 88 89 90 91 92 93 94 95 96 97 98 99 100 101 102 103 104 105 106 107 108 109 110 111 112 113 114 115 116 117 118 119 120 0
e 121 122 123 124 125 126 127 128 129 130 131 132 133 134 135 136 137 138 139 140 141 142 143 144 145 146 147 148 149 150 151 152 153 154 155 156 157 158 159 160 0
29 -63 -85 -121 0
-17 -63 -86 -121 0
21 67 -88 -121 0
-27 59 92 -121 0
5 -41 -95 -121 0
-26 -72 101 -121 0
-20 72 103 -121 0
37 62 114 -121 0
-11 50 -82 121 0
33 -51 86 121 0
-2 69 99 121 0
24 -79 106 121 0
-10 -52 107 121 0
-25 -55 -108 121 0
17 72 113 121 0
33 60 -88 -122 0
39 -56 89 -122 0
35 -72 94 -122 0
2 -60 95 -122 0
25 -46 102 -122 0
40 62 109 -122 0
27 44 -111 -122 0
19 69 -112 -122 0
-40 -66 -81 122 0
-1 -48 -82 122 0
-12 -44 -93 122 0
-17 42 -98 122 0
5 -45 98 122 0
-37 -61 99 122 0
-12 -66 100 122 0
-33 61 -101 122 0
13 -52 -104 122 0
18 42 111 122 0
7 61 111 122 0
14 -78 111 122 0
16 41 113 122 0
26 75 -117 122 0
21 -60 -119 122 0
6 60 -81 -123 0
-22 -41 86 -123 0
-9 61 -88 -123 0
33 -46 88 -123 0
-8 -49 93 -123 0
40 52 -100 -123 0
1 49 100 -123 0
17 -42 -102 -123 0
-6 48 102 -123 0
-20 76 104 -123 0
-38 66 108 -123 0
-27 -52 116 -123 0
-32 -43 82 123 0
-15 -55 -83 123 0
29 54 -89 123 0
34 -69 -89 123 0
-12 48 89 123 0
1 -67 -95 123 0
-10 66 -98 123 0
-5 -68 -99 123 0
35 -70 104 123 0
37 -49 -114 123 0
-16 -78 -82 -124 0
7 -67 82 -124 0
-22 -54 -84 -124 0
26 54 -90 -124 0
28 77 -92 -124 0
-38 54 -94 -124 0
12 46 -98 -124 0
25 -48 109 -124 0
37 -48 110 -124 0
-25 57 110 -124 0
14 -77 -112 -124 0
-9 68 116 -124 0
6 52 -117 -124 0
-9 66 -118 -124 0
-28 -63 -94 124 0
16 44 96 124 0
-22 -47 -98 124 0
-32 -71 -98 124 0
-15 -43 -100 124 0
-5 -47 101 124 0
34 73 -114 124 0
4 53 -85 -125 0
-4 45 87 -125 0
30 79 -95 -125 0
21 48 96 -125 0
-15 76 -103 -125 0
32 -54 103 -125 0
-23 66 -108 -125 0
-23 41 -109 -125 0
15 -46 -118 -125 0
40 -53 93 125 0
-16 -68 -94 125 0
-16 -74 98 125 0
-26 73 -111 125 0
25 62 -81 -126 0
-6 45 87 -126 0
20 68 90 -126 0
30 44 -91 -126 0
28 51 -95 -126 0
-26 42 98 -126 0
-22 64 100 -126 0
-15 -70 -119 -126 0
-18 62 119 -126 0
27 -44 120 -126 0
-25 -49 -86 126 0
13 -67 -88 126 0
-30 77 -95 126 0
-36 -80 97 126 0
16 -56 99 126 0
5 45 106 126 0
15 -59 -108 126 0
22 -55 109 126 0
6 -68 113 126 0
-1 52 114 126 0
36 67 115 126 0
-16 71 115 126 0
-25 -61 119 126 0
35 -73 87 -127 0
-28 76 90 -127 0
25 -42 -96 -127 0
-9 -54 106 -127 0
-16 60 107 -127 0
2 69 111 -127 0
9 57 113 -127 0
32 75 -115 -127 0
-4 72 116 -127 0
27 57 -118 -127 0
-10 -65 118 -127 0
13 -79 81 127 0
-6 47 -94 127 0
32 -63 94 127 0
-37 -69 101 127 0
-24 72 103 127 0
-12 58 -106 127 0
-29 50 -107 127 0
-30 -46 107 127 0
-34 -44 82 -128 0
-14 66 82 -128 0
8 -42 83 -128 0
5 -62 -86 -128 0
-23 -45 -90 -128 0
17 -52 94 -128 0
-30 49 107 -128 0
-22 -78 -110 -128 0
13 -75 -117 -128 0
13 43 -81 128 0
1 -69 -86 128 0
-40 70 -89 128 0
27 42 93 128 0
-40 -58 -94 128 0
-21 55 99 128 0
20 -41 105 128 0
-35 -42 -110 128 0
37 -72 110 128 0
32 -43 84 -129 0
20 58 94 -129 0
-21 -57 -97 -129 0
-7 -67 105 -129 0
28 52 111 -129 0
-5 -55 -113 -129 0
-19 -50 -114 -129 0
23 -48 -120 -129 0
-26 49 -83 129 0
22 -49 -93 129 0
13 50 -94 129 0
-24 -51 101 129 0
21 -65 -110 129 0
-16 -63 111 129 0
5 -76 -113 129 0
3 -77 -113 129 0
-17 -71 117 129 0
-26 -70 -119 129 0
40 -72 87 -130 0
33 -71 -91 -130 0
35 60 98 -130 0
21 -80 -99 -130 0
2 -69 106 -130 0
24 -47 111 -130 0
-25 -41 -116 -130 0
37 48 -120 -130 0
20 78 -120 -130 0
35 50 88 130 0
-28 -63 91 130 0
-13 -66 96 130 0
3 -63 -99 130 0
2 -66 100 130 0
8 -50 -101 130 0
1 -51 -102 130 0
6 60 -113 130 0
13 -61 113 130 0
28 -60 115 130 0
-23 73 -116 130 0
37 54 -117 130 0
-15 -42 -118 130 0
-33 70 83 -131 0
18 -79 101 -131 0
2 -73 107 -131 0
5 -52 108 -131 0
27 80 -113 -131 0
-36 71 -93 131 0
27 -71 93 131 0
-35 41 -101 131 0
30 70 -101 131 0
22 57 118 131 0
19 45 -119 131 0
-10 61 -120 131 0
-1 68 -87 -132 0
-31 -67 -90 -132 0
18 52 -91 -132 0
2 58 91 -132 0
-25 -66 -98 -132 0
-37 79 105 -132 0
-31 65 -111 -132 0
11 45 113 -132 0
9 -42 114 -132 0
-14 -66 -117 -132 0
20 -49 -119 -132 0
26 -62 -82 132 0
7 57 89 132 0
-4 46 -94 132 0
15 61 -98 132 0
7 52 102 132 0
-16 -58 -105 132 0
-28 -48 -110 132 0
-31 56 119 132 0
-7 -47 84 -133 0
34 -49 -87 -133 0
-38 76 -102 -133 0
22 -41 -109 -133 0
36 52 -85 133 0
5 72 90 133 0
4 -45 91 133 0
4 61 -94 133 0
8 -62 -100 133 0
17 58 102 133 0
7 -66 -103 133 0
35 78 -109 133 0
-30 -59 -84 -134 0
37 -67 -84 -134 0
-16 -76 85 -134 0
13 -77 85 -134 0
-15 54 91 -134 0
9 -80 -93 -134 0
-39 73 -102 -134 0
-13 -53 116 -134 0
14 49 81 134 0
-8 52 84 134 0
22 45 -87 134 0
-33 -56 97 134 0
-34 55 -101 134 0
-13 46 102 134 0
30 -67 -118 134 0
-18 78 83 -135 0
-38 77 -89 -135 0
19 69 -90 -135 0
14 -46 90 -135 0
-4 49 97 -135 0
27 61 105 -135 0
37 -59 107 -135 0
-18 -58 82 135 0
-28 -54 -84 135 0
-23 -72 -87 135 0
-25 44 87 135 0
-3 -65 -94 135 0
-1 -76 95 135 0
-26 74 104 135 0
39 -74 -109 135 0
16 45 114 135 0
-32 -62 114 135 0
-22 -64 82 -136 0
-28 79 84 -136 0
-36 -75 85 -136 0
-17 -56 90 -136 0
-40 -76 -95 -136 0
-24 76 -95 -136 0
29 65 -97 -136 0
7 -80 -98 -136 0
-21 42 102 -136 0
-8 44 102 -136 0
26 45 -106 -136 0
-27 -58 114 -136 0
-35 48 115 -136 0
-32 72 116 -136 0
-30 75 85 136 0
-4 59 88 136 0
-32 41 -91 136 0
-14 -71 -92 136 0
11 -67 -93 136 0
20 72 94 136 0
10 76 -103 136 0
-4 76 -105 136 0
-7 -55 109 136 0
-11 79 -111 136 0
-6 43 -115 136 0
20 66 118 136 0
-28 78 82 -137 0
4 -75 83 -137 0
34 53 -85 -137 0
-14 -64 99 -137 0
-8 42 -100 -137 0
-24 44 103 -137 0
40 68 -105 -137 0
26 -71 105 -137 0
-11 -67 -115 -137 0
-18 -77 -119 -137 0
-29 79 81 137 0
-24 -44 84 137 0
-6 41 85 137 0
-2 -46 95 137 0
-33 55 98 137 0
-15 -63 111 137 0
-12 -50 -119 137 0
-35 -46 -85 -138 0
-33 -75 92 -138 0
22 50 95 -138 0
16 62 -114 -138 0
-25 -59 81 138 0
-29 44 -84 138 0
1 44 85 138 0
30 -68 89 138 0
33 73 102 138 0
22 -42 -104 138 0
25 45 105 138 0
15 80 -106 138 0
39 79 -116 138 0
21 74 120 138 0
23 53 -81 -139 0
14 62 -107 -139 0
27 -70 -119 -139 0
-8 63 120 -139 0
-39 70 -94 139 0
-11 43 -100 139 0
-1 -76 100 139 0
28 49 114 139 0
-11 -55 114 139 0
29 -44 115 139 0
39 -62 116 139 0
16 -80 84 -140 0
-4 57 91 -140 0
32 -50 -113 -140 0
8 -57 -118 -140 0
-6 54 81 140 0
23 -54 88 140 0
-14 67 89 140 0
23 -59 -90 140 0
-23 60 -101 140 0
-27 -42 101 140 0
-34 -42 -102 140 0
39 69 -102 140 0
-18 68 -106 140 0
-7 -72 113 140 0
30 55 118 140 0
-24 60 118 140 0
-18 61 81 -141 0
-17 72 82 -141 0
-18 64 -83 -141 0
18 57 -93 -141 0
-23 59 95 -141 0
-11 -65 95 -141 0
-20 -45 99 -141 0
19 -57 -101 -141 0
-2 -79 -115 -141 0
22 -61 118 -141 0
-6 -70 -87 141 0
29 54 -97 141 0
6 -58 -98 141 0
-29 -67 98 141 0
11 -53 -99 141 0
-31 76 -104 141 0
33 -74 -117 141 0
5 -70 -118 141 0
24 -71 -85 -142 0
5 79 -87 -142 0
-2 70 -89 -142 0
32 54 93 -142 0
21 -44 106 -142 0
-17 -62 -110 -142 0
32 74 113 -142 0
14 -78 -117 -142 0
-37 51 120 -142 0
26 -45 -95 142 0
-1 -68 96 142 0
-17 69 -99 142 0
-16 -56 100 142 0
25 73 117 142 0
-16 72 -119 142 0
-22 -47 120 142 0
-29 73 82 -143 0
-9 -50 83 -143 0
-24 58 105 -143 0
-25 63 107 -143 0
-1 67 108 -143 0
-21 -43 -110 -143 0
-16 -62 110 -143 0
-22 75 112 -143 0
-40 42 120 -143 0
25 75 -81 143 0
23 -41 -85 143 0
-32 -66 85 143 0
19 66 96 143 0
37 -74 -97 143 0
10 48 97 143 0
-4 76 97 143 0
-38 51 107 143 0
-2 -61 -113 143 0
-16 -59 -95 -144 0
20 54 102 -144 0
12 60 -113 -144 0
1 63 -114 -144 0
3 -64 -115 -144 0
16 53 89 144 0
21 72 -95 144 0
-37 -43 -102 144 0
19 52 104 144 0
-1 -65 -115 144 0
13 -51 -116 144 0
-4 51 119 144 0
36 48 -120 144 0
-3 -58 -84 -145 0
38 -54 -93 -145 0
40 -57 -94 -145 0
-29 -73 97 -145 0
19 -59 -101 -145 0
25 57 -102 -145 0
-7 60 107 -145 0
14 -73 83 145 0
-35 -67 -87 145 0
27 78 -89 145 0
6 -49 94 145 0
27 76 98 145 0
-19 44 -99 145 0
1 -42 101 145 0
34 -50 114 145 0
-18 66 -83 -146 0
-10 58 -87 -146 0
-15 -45 -96 -146 0
22 -44 98 -146 0
-39 -53 99 -146 0
-36 -74 99 -146 0
35 -46 102 -146 0
5 -48 106 -146 0
-39 -63 -111 -146 0
-6 73 -111 -146 0
-27 76 111 -146 0
2 -74 119 -146 0
7 44 -120 -146 0
-16 -51 81 146 0
24 -46 82 146 0
35 -42 88 146 0
-3 -50 90 146 0
-21 75 -103 146 0
28 -79 -106 146 0
-9 50 -107 146 0
21 -75 107 146 0
13 67 113 146 0
-25 73 -114 146 0
-30 -55 -115 146 0
9 -72 -82 -147 0
-17 44 -84 -147 0
8 44 90 -147 0
-39 67 -96 -147 0
3 59 -98 -147 0
-9 -49 105 -147 0
19 67 114 -147 0
-16 79 114 -147 0
-13 76 82 147 0
-9 -67 86 147 0
-9 -41 93 147 0
-1 -73 105 147 0
27 -73 -111 147 0
-23 -51 114 147 0
-7 -78 -84 -148 0
-32 68 -87 -148 0
21 -75 -95 -148 0
12 46 -98 -148 0
-1 72 99 -148 0
38 -62 111 -148 0
15 54 114 -148 0
26 -74 -117 -148 0
38 -60 -119 -148 0
31 57 -83 148 0
-19 -41 83 148 0
13 -55 83 148 0
-32 69 -94 148 0
25 42 94 148 0
-11 59 -100 148 0
39 -58 -101 148 0
40 -57 -119 148 0
25 80 -86 -149 0
-21 -64 -89 -149 0
-18 42 -93 -149 0
11 -62 93 -149 0
-10 72 93 -149 0
35 -53 94 -149 0
-38 -75 -105 -149 0
-21 -71 112 -149 0
18 -73 115 -149 0
-37 -44 -116 -149 0
23 56 118 -149 0
-9 -78 -88 149 0
-15 -46 -93 149 0
-8 60 -96 149 0
-28 57 -108 149 0
-24 -63 120 149 0
-2 -70 82 -150 0
-20 -53 83 -150 0
1 -60 87 -150 0
-35 67 87 -150 0
-26 -50 92 -150 0
-1 -76 -96 -150 0
-31 -73 100 -150 0
38 -73 -104 -150 0
39 72 104 -150 0
29 49 108 -150 0
-24 -56 -114 -150 0
22 -79 119 -150 0
34 -53 83 150 0
-9 68 -88 150 0
-34 70 89 150 0
-6 -44 90 150 0
-11 47 -91 150 0
-21 60 92 150 0
40 62 -101 150 0
7 -45 -103 150 0
26 -79 104 150 0
-39 59 -119 150 0
30 65 -82 -151 0
-37 -68 82 -151 0
-35 -73 -84 -151 0
28 46 88 -151 0
-31 71 92 -151 0
5 -67 -97 -151 0
-39 42 97 -151 0
-32 44 97 -151 0
-5 -68 100 -151 0
-13 52 -101 -151 0
-26 61 -101 -151 0
-28 -56 -110 -151 0
-39 -59 111 -151 0
-40 -51 -115 -151 0
-30 -79 -115 -151 0
8 57 115 -151 0
-23 41 -81 151 0
-34 -74 86 151 0
-40 -41 -97 151 0
-32 50 -98 151 0
-29 -61 -98 151 0
-28 74 110 151 0
-12 53 112 151 0
39 -49 115 151 0
-14 70 117 151 0
-2 -71 -118 151 0
16 74 82 -152 0
35 64 -89 -152 0
12 -65 -89 -152 0
-4 -62 -91 -152 0
-2 -54 -94 -152 0
-12 -78 -95 -152 0
-19 -47 96 -152 0
21 43 99 -152 0
12 72 99 -152 0
6 57 104 -152 0
-2 47 112 -152 0
-8 -43 -114 -152 0
5 -57 -84 152 0
14 -72 91 152 0
15 44 -93 152 0
-19 -54 94 152 0
3 -68 96 152 0
-12 67 98 152 0
-38 75 102 152 0
-34 77 -107 152 0
23 55 -108 152 0
35 49 109 152 0
-4 -78 -115 152 0
4 58 -116 152 0
-31 -67 120 152 0
-19 58 -89 -153 0
11 74 91 -153 0
-35 65 102 -153 0
32 77 -106 -153 0
34 53 110 -153 0
-14 -46 -113 -153 0
-4 -44 -119 -153 0
34 -59 -84 153 0
-28 -41 105 153 0
28 59 -109 153 0
18 -45 119 153 0
-39 -64 -120 153 0
-22 74 120 153 0
-23 -62 90 -154 0
19 63 91 -154 0
-30 47 -95 -154 0
-32 -44 99 -154 0
33 -41 -100 -154 0
24 -74 105 -154 0
-11 66 107 -154 0
-40 56 113 -154 0
-1 60 -118 -154 0
-30 65 -119 -154 0
27 -61 -120 -154 0
-29 -62 83 154 0
-34 -69 84 154 0
38 43 91 154 0
35 66 -103 154 0
15 52 -106 154 0
35 -42 -108 154 0
7 -68 -110 154 0
38 -41 112 154 0
-37 -76 -115 154 0
27 79 -117 154 0
10 41 -87 -155 0
16 -45 -92 -155 0
-20 54 -99 -155 0
-37 -66 102 -155 0
22 -71 82 155 0
26 -65 90 155 0
25 -44 92 155 0
16 -77 95 155 0
36 -42 -99 155 0
-33 -49 -114 155 0
40 67 -114 155 0
-38 -43 115 155 0
-10 -61 -118 155 0
6 -55 -119 155 0
40 70 119 155 0
13 -65 -87 -156 0
29 70 -87 -156 0
39 75 87 -156 0
24 79 87 -156 0
6 -41 -90 -156 0
-4 -48 96 -156 0
-4 41 103 -156 0
31 42 -115 -156 0
30 -69 -120 -156 0
21 -73 81 156 0
21 50 85 156 0
-33 78 -97 156 0
-31 -43 99 156 0
-14 67 -105 156 0
-37 61 -106 156 0
3 -78 -106 156 0
-39 -50 107 156 0
12 73 111 156 0
22 74 -116 156 0
-12 66 -117 156 0
19 -53 -119 156 0
-1 -69 -120 156 0
-2 75 -120 156 0
-19 -78 81 -157 0
-6 79 83 -157 0
17 80 -89 -157 0
-39 -46 103 -157 0
-38 -68 111 -157 0
-7 -49 119 -157 0
40 -73 83 157 0
-12 66 -85 157 0
-2 -80 100 157 0
-29 -57 -102 157 0
29 69 -102 157 0
-39 -48 102 157 0
-2 50 -108 157 0
6 58 -112 157 0
-29 74 -114 157 0
35 -75 -115 157 0
8 51 -116 157 0
-16 -76 118 157 0
2 72 82 -158 0
27 54 -91 -158 0
30 -44 -101 -158 0
-2 -66 104 -158 0
40 56 -105 -158 0
-26 45 109 -158 0
2 -49 110 -158 0
-40 52 119 -158 0
2 -47 86 158 0
-18 -53 -91 158 0
-14 -64 92 158 0
-27 -59 93 158 0
-37 46 -106 158 0
-30 74 111 158 0
23 59 116 158 0
5 -53 -119 158 0
10 68 120 158 0
3 79 104 -159 0
20 -71 -113 -159 0
4 -77 114 -159 0
14 -54 117 -159 0
11 -56 -82 159 0
3 -41 85 159 0
10 -43 -89 159 0
-15 -59 -89 159 0
-21 -78 106 159 0
29 70 -110 159 0
-31 -56 -113 159 0
28 48 113 159 0
7 49 82 -160 0
-11 -60 89 -160 0
11 -54 90 -160 0
-3 75 95 -160 0
-7 48 -98 -160 0
-38 69 100 -160 0
2 -46 104 -160 0
22 -64 107 -160 0
40 -69 112 -160 0
-19 -53 114 -160 0
-33 52 119 -160 0
9 -49 -120 -160 0
-15 -56 120 -160 0
20 70 -85 160 0
13 -72 88 160 0
5 -41 -93 160 0
22 -49 -100 160 0
-23 -42 100 160 0
40 43 103 160 0
31 -45 -110 160 0
11 41 -111 160 0
